words_hard_train/8226.qaiger
aag 107 11 0 1 96
2
4
8
10
22
24
52
70
94
102
108
215
6 2 4
12 9 11
14 8 10
16 13 15
18 6 16
20 19 15
26 23 25
28 22 24
30 27 29
32 20 31
34 21 30
36 33 35
38 3 5
40 39 7
42 7 17
44 43 19
46 41 45
48 37 46
50 35 29
54 53 25
56 52 24
58 55 57
60 50 59
62 51 58
64 61 63
66 48 65
68 63 57
72 71 25
74 70 24
76 73 75
78 68 77
80 69 76
82 79 81
84 67 82
86 66 83
88 85 87
90 88 70
92 89 71
96 64 95
98 97 67
100 40 16
104 101 102
106 105 47
110 106 109
112 107 108
114 113 36
116 111 115
118 65 94
120 117 119
122 98 121
124 93 122
126 91 125
128 81 75
130 95 25
132 94 24
134 131 133
136 128 135
138 129 134
140 137 139
142 87 140
144 86 141
146 143 145
148 146 52
150 126 149
152 147 53
154 151 153
156 139 133
158 109 25
160 108 24
162 159 161
164 156 163
166 157 162
168 165 167
170 145 168
172 144 169
174 171 173
176 174 22
178 155 177
180 175 23
182 179 181
184 183 10
186 24 103
188 25 102
190 187 189
192 167 161
194 191 193
196 190 192
198 195 197
200 198 172
202 184 201
204 182 11
206 200 204
208 203 207
210 199 173
212 210 205
214 208 213
i0 1 x2[5]
i1 2 y2[7]
i2 1 x2[6]
i3 2 y2[6]
i4 2 y2[5]
i5 1 x2[7]
i6 2 y2[4]
i7 2 y2[3]
i8 2 y2[2]
i9 2 y2[0]
i10 2 y2[1]
o0 bv[0]
c
simplified
  >
    add
      >> 5
        1 x2
      reverse
        2 y2
    << 1
      2 y2
