words_hard_train/8226.qaiger.qdimacs
p cnf 107 289
a 1 4 12 0
e 2 3 5 6 7 8 9 10 11 13 14 15 16 17 18 19 20 21 22 23 24 25 26 27 28 29 30 31 32 33 34 35 36 37 38 39 40 41 42 43 44 45 46 47 48 49 50 51 52 53 54 55 56 57 58 59 60 61 62 63 64 65 66 67 68 69 70 71 72 73 74 75 76 77 78 79 80 81 82 83 84 85 86 87 88 89 90 91 92 93 94 95 96 97 98 99 100 101 102 103 104 105 106 107 0
-1 -2 3 0
1 -3 0
2 -3 0
4 5 6 0
-4 -6 0
-5 -6 0
-4 -5 7 0
4 -7 0
5 -7 0
6 7 8 0
-6 -8 0
-7 -8 0
-3 -8 9 0
3 -9 0
8 -9 0
9 7 10 0
-9 -10 0
-7 -10 0
11 12 13 0
-11 -13 0
-12 -13 0
-11 -12 14 0
11 -14 0
12 -14 0
13 14 15 0
-13 -15 0
-14 -15 0
-10 15 16 0
10 -16 0
-15 -16 0
10 -15 17 0
-10 -17 0
15 -17 0
16 17 18 0
-16 -18 0
-17 -18 0
1 2 19 0
-1 -19 0
-2 -19 0
19 3 20 0
-19 -20 0
-3 -20 0
3 8 21 0
-3 -21 0
-8 -21 0
21 9 22 0
-21 -22 0
-9 -22 0
20 22 23 0
-20 -23 0
-22 -23 0
18 -23 24 0
-18 -24 0
23 -24 0
17 14 25 0
-17 -25 0
-14 -25 0
26 12 27 0
-26 -27 0
-12 -27 0
-26 -12 28 0
26 -28 0
12 -28 0
27 28 29 0
-27 -29 0
-28 -29 0
-25 29 30 0
25 -30 0
-29 -30 0
25 -29 31 0
-25 -31 0
29 -31 0
30 31 32 0
-30 -32 0
-31 -32 0
-24 32 33 0
24 -33 0
-32 -33 0
31 28 34 0
-31 -34 0
-28 -34 0
35 12 36 0
-35 -36 0
-12 -36 0
-35 -12 37 0
35 -37 0
12 -37 0
36 37 38 0
-36 -38 0
-37 -38 0
-34 38 39 0
34 -39 0
-38 -39 0
34 -38 40 0
-34 -40 0
38 -40 0
39 40 41 0
-39 -41 0
-40 -41 0
33 -41 42 0
-33 -42 0
41 -42 0
-33 41 43 0
33 -43 0
-41 -43 0
42 43 44 0
-42 -44 0
-43 -44 0
-44 -35 45 0
44 -45 0
35 -45 0
44 35 46 0
-44 -46 0
-35 -46 0
-32 47 48 0
32 -48 0
-47 -48 0
48 33 49 0
-48 -49 0
-33 -49 0
-20 -8 50 0
20 -50 0
8 -50 0
50 -51 52 0
-50 -52 0
51 -52 0
52 23 53 0
-52 -53 0
-23 -53 0
-53 54 55 0
53 -55 0
-54 -55 0
53 -54 56 0
-53 -56 0
54 -56 0
56 -18 57 0
-56 -57 0
18 -57 0
55 57 58 0
-55 -58 0
-57 -58 0
32 -47 59 0
-32 -59 0
47 -59 0
58 59 60 0
-58 -60 0
-59 -60 0
-49 60 61 0
49 -61 0
-60 -61 0
46 -61 62 0
-46 -62 0
61 -62 0
45 62 63 0
-45 -63 0
-62 -63 0
40 37 64 0
-40 -64 0
-37 -64 0
47 12 65 0
-47 -65 0
-12 -65 0
-47 -12 66 0
47 -66 0
12 -66 0
65 66 67 0
-65 -67 0
-66 -67 0
-64 67 68 0
64 -68 0
-67 -68 0
64 -67 69 0
-64 -69 0
67 -69 0
68 69 70 0
-68 -70 0
-69 -70 0
43 -70 71 0
-43 -71 0
70 -71 0
-43 70 72 0
43 -72 0
-70 -72 0
71 72 73 0
-71 -73 0
-72 -73 0
-73 -26 74 0
73 -74 0
26 -74 0
-63 74 75 0
63 -75 0
-74 -75 0
73 26 76 0
-73 -76 0
-26 -76 0
75 76 77 0
-75 -77 0
-76 -77 0
69 66 78 0
-69 -78 0
-66 -78 0
54 12 79 0
-54 -79 0
-12 -79 0
-54 -12 80 0
54 -80 0
12 -80 0
79 80 81 0
-79 -81 0
-80 -81 0
-78 81 82 0
78 -82 0
-81 -82 0
78 -81 83 0
-78 -83 0
81 -83 0
82 83 84 0
-82 -84 0
-83 -84 0
72 -84 85 0
-72 -85 0
84 -85 0
-72 84 86 0
72 -86 0
-84 -86 0
85 86 87 0
-85 -87 0
-86 -87 0
-87 -11 88 0
87 -88 0
11 -88 0
77 88 89 0
-77 -89 0
-88 -89 0
87 11 90 0
-87 -90 0
-11 -90 0
89 90 91 0
-89 -91 0
-90 -91 0
91 -5 92 0
-91 -92 0
5 -92 0
-12 51 93 0
12 -93 0
-51 -93 0
12 -51 94 0
-12 -94 0
51 -94 0
93 94 95 0
-93 -95 0
-94 -95 0
83 80 96 0
-83 -96 0
-80 -96 0
95 96 97 0
-95 -97 0
-96 -97 0
-95 -96 98 0
95 -98 0
96 -98 0
97 98 99 0
-97 -99 0
-98 -99 0
-99 -86 100 0
99 -100 0
86 -100 0
-92 100 101 0
92 -101 0
-100 -101 0
-91 5 102 0
91 -102 0
-5 -102 0
-100 -102 103 0
100 -103 0
102 -103 0
101 103 104 0
-101 -104 0
-103 -104 0
99 86 105 0
-99 -105 0
-86 -105 0
-105 102 106 0
105 -106 0
-102 -106 0
-104 106 107 0
104 -107 0
-106 -107 0
-107 0
